
Gurobi 9.0.1 (linux64) logging started Thu Apr 30 05:57:57 2020

Gurobi Optimizer version 9.0.1 build v9.0.1rc0 (linux64)
Optimize a model with 860 rows, 990 columns and 6912 nonzeros
Model fingerprint: 0x6f0720d2
Variable types: 0 continuous, 990 integer (980 binary)
Coefficient statistics:
  Matrix range     [1e+00, 5e+00]
  Objective range  [1e+00, 1e+02]
  Bounds range     [1e+00, 1e+00]
  RHS range        [1e+00, 1e+00]

User MIP start produced solution with objective 501 (0.00s)
Loaded user MIP start with objective 501

Presolve removed 182 rows and 348 columns
Presolve time: 0.06s
Presolved: 678 rows, 642 columns, 4950 nonzeros
Variable types: 0 continuous, 642 integer (634 binary)

Root relaxation: objective 4.147512e+02, 574 iterations, 0.03 seconds

    Nodes    |    Current Node    |     Objective Bounds      |     Work
 Expl Unexpl |  Obj  Depth IntInf | Incumbent    BestBd   Gap | It/Node Time

     0     0  414.75121    0  273  501.00000  414.75121  17.2%     -    0s
     0     0  440.19319    0  294  501.00000  440.19319  12.1%     -    0s
     0     0  440.32637    0  298  501.00000  440.32637  12.1%     -    0s
     0     0  446.21322    0  299  501.00000  446.21322  10.9%     -    0s
     0     0  447.81538    0  292  501.00000  447.81538  10.6%     -    0s
     0     0  448.11996    0  295  501.00000  448.11996  10.6%     -    0s
     0     0  448.16406    0  295  501.00000  448.16406  10.5%     -    0s
     0     0  448.16516    0  291  501.00000  448.16516  10.5%     -    0s
     0     0  451.00568    0  284  501.00000  451.00568  10.0%     -    0s
     0     0  453.73843    0  306  501.00000  453.73843  9.43%     -    0s
     0     0  453.99202    0  298  501.00000  453.99202  9.38%     -    0s
     0     0  454.04332    0  297  501.00000  454.04332  9.37%     -    0s
     0     0  454.04776    0  299  501.00000  454.04776  9.37%     -    0s
     0     0  460.14437    0  320  501.00000  460.14437  8.15%     -    1s
     0     0  462.22007    0  300  501.00000  462.22007  7.74%     -    1s
     0     0  462.39228    0  310  501.00000  462.39228  7.71%     -    1s
     0     0  462.53498    0  311  501.00000  462.53498  7.68%     -    1s
     0     0  462.54804    0  310  501.00000  462.54804  7.68%     -    1s
     0     0  463.60471    0  314  501.00000  463.60471  7.46%     -    1s
     0     0  463.74162    0  317  501.00000  463.74162  7.44%     -    1s
     0     0  463.74342    0  318  501.00000  463.74342  7.44%     -    1s
     0     0  464.79047    0  307  501.00000  464.79047  7.23%     -    1s
     0     0  464.80373    0  306  501.00000  464.80373  7.22%     -    1s
     0     0  465.18904    0  307  501.00000  465.18904  7.15%     -    1s
     0     0  465.32080    0  311  501.00000  465.32080  7.12%     -    1s
     0     0  465.35692    0  314  501.00000  465.35692  7.11%     -    1s
     0     0  465.36114    0  312  501.00000  465.36114  7.11%     -    1s
     0     0  465.50999    0  313  501.00000  465.50999  7.08%     -    1s
     0     0  465.50999    0  312  501.00000  465.50999  7.08%     -    1s
     0     0  466.39241    0  274  501.00000  466.39241  6.91%     -    1s
     0     0  466.39241    0  265  501.00000  466.39241  6.91%     -    1s
     0     0  466.39241    0  270  501.00000  466.39241  6.91%     -    2s
     0     0  466.39241    0  267  501.00000  466.39241  6.91%     -    2s
     0     0  466.39241    0  267  501.00000  466.39241  6.91%     -    2s
     0     0  466.75457    0  235  501.00000  466.75457  6.84%     -    2s
     0     0  466.83288    0  249  501.00000  466.83288  6.82%     -    2s
     0     0  466.84890    0  242  501.00000  466.84890  6.82%     -    2s
     0     0  472.24762    0  191  501.00000  472.24762  5.74%     -    2s
     0     0  472.64666    0  245  501.00000  472.64666  5.66%     -    2s
     0     0  472.66066    0  245  501.00000  472.66066  5.66%     -    2s
     0     0  474.27742    0  233  501.00000  474.27742  5.33%     -    2s
     0     0  474.43814    0  244  501.00000  474.43814  5.30%     -    2s
     0     0  474.50847    0  196  501.00000  474.50847  5.29%     -    2s
     0     0  474.53972    0  205  501.00000  474.53972  5.28%     -    2s
     0     0  475.78194    0  240  501.00000  475.78194  5.03%     -    2s
     0     0  475.98103    0  244  501.00000  475.98103  4.99%     -    2s
     0     0  475.99710    0  242  501.00000  475.99710  4.99%     -    2s
     0     0  477.32159    0  252  501.00000  477.32159  4.73%     -    2s
     0     0  477.47412    0  253  501.00000  477.47412  4.70%     -    2s
     0     0  477.47910    0  236  501.00000  477.47910  4.69%     -    2s
     0     0  480.19641    0  231  501.00000  480.19641  4.15%     -    2s
     0     0  480.32857    0  231  501.00000  480.32857  4.13%     -    2s
     0     0  480.38895    0  224  501.00000  480.38895  4.11%     -    2s
     0     0  480.39328    0  234  501.00000  480.39328  4.11%     -    2s
     0     0  482.14900    0  218  501.00000  482.14900  3.76%     -    2s
     0     0  482.25614    0  235  501.00000  482.25614  3.74%     -    3s
     0     0  482.27427    0  236  501.00000  482.27427  3.74%     -    3s
     0     0  483.74557    0  198  501.00000  483.74557  3.44%     -    3s
     0     0  483.80674    0  197  501.00000  483.80674  3.43%     -    3s
     0     0  483.80964    0  196  501.00000  483.80964  3.43%     -    3s
     0     0  484.57717    0  225  501.00000  484.57717  3.28%     -    3s
     0     0  484.63327    0  258  501.00000  484.63327  3.27%     -    3s
     0     0  484.64437    0  255  501.00000  484.64437  3.26%     -    3s
     0     0  484.85986    0  258  501.00000  484.85986  3.22%     -    3s
     0     0  484.85986    0  258  501.00000  484.85986  3.22%     -    3s
     0     0  485.17696    0  192  501.00000  485.17696  3.16%     -    3s
     0     0  485.17696    0  191  501.00000  485.17696  3.16%     -    3s
     0     0  485.17696    0  172  501.00000  485.17696  3.16%     -    3s
     0     0  485.17696    0  172  501.00000  485.17696  3.16%     -    3s
     0     0  485.17696    0  217  501.00000  485.17696  3.16%     -    3s
     0     0  485.17696    0  219  501.00000  485.17696  3.16%     -    3s
     0     0  485.17696    0  195  501.00000  485.17696  3.16%     -    3s
     0     0  486.10432    0  216  501.00000  486.10432  2.97%     -    3s
     0     0  486.10435    0  218  501.00000  486.10435  2.97%     -    3s
     0     0  489.30247    0  208  501.00000  489.30247  2.33%     -    3s
     0     0  489.45402    0  218  501.00000  489.45402  2.30%     -    3s
     0     0  489.45876    0  217  501.00000  489.45876  2.30%     -    3s
     0     0  489.67475    0  216  501.00000  489.67475  2.26%     -    3s
     0     0  489.67756    0  218  501.00000  489.67756  2.26%     -    3s
     0     0  489.68457    0  216  501.00000  489.68457  2.26%     -    3s
     0     0  489.68457    0  216  501.00000  489.68457  2.26%     -    3s
     0     0  489.78877    0  189  501.00000  489.78877  2.24%     -    4s
     0     0  489.78877    0  191  501.00000  489.78877  2.24%     -    4s
     0     0  489.78877    0  174  501.00000  489.78877  2.24%     -    4s
     0     0  489.78877    0  181  501.00000  489.78877  2.24%     -    4s
     0     0  489.78877    0  180  501.00000  489.78877  2.24%     -    4s
     0     0  489.78877    0  217  501.00000  489.78877  2.24%     -    4s
     0     0  489.78877    0  196  501.00000  489.78877  2.24%     -    4s
     0     0  489.78877    0  212  501.00000  489.78877  2.24%     -    4s
     0     0  489.78877    0  195  501.00000  489.78877  2.24%     -    4s
     0     0  489.78877    0  195  501.00000  489.78877  2.24%     -    4s
     0     0  492.52189    0  220  501.00000  492.52189  1.69%     -    4s
     0     0  493.93792    0  203  501.00000  493.93792  1.41%     -    4s
     0     0  494.17603    0  190  501.00000  494.17603  1.36%     -    4s
     0     0  494.20020    0  184  501.00000  494.20020  1.36%     -    4s
     0     0  494.20970    0  186  501.00000  494.20970  1.36%     -    4s
     0     0  496.03474    0  208  501.00000  496.03474  0.99%     -    4s
     0     0  496.08433    0  213  501.00000  496.08433  0.98%     -    4s
     0     0  496.08536    0  211  501.00000  496.08536  0.98%     -    4s
     0     0  496.50903    0  215  501.00000  496.50903  0.90%     -    4s
     0     0  496.51537    0  214  501.00000  496.51537  0.90%     -    4s
     0     0  496.53906    0  211  501.00000  496.53906  0.89%     -    4s
     0     0  496.53906    0  211  501.00000  496.53906  0.89%     -    4s
     0     0 infeasible    0       501.00000  501.00000  0.00%     -    4s

Explored 1 nodes (18456 simplex iterations) in 4.74 seconds
Thread count was 1 (of 40 available processors)

Solution count 1: 501 

Optimal solution found (tolerance 1.00e-04)
Best objective 5.010000000000e+02, best bound 5.010000000000e+02, gap 0.0000%

User-callback calls 1428, time in user-callback 0.00 sec
